DIMACS2
80 275 89 253 198 192 243 258 190 241 30 52 166 0 151 75 34 9 22 201 113 140 27 213 260 24 223 282 57 92 132 40 184 197 144 97 118 32 303 112 153 39 99 234 43 134 189 130 11 305 98 205 255 246 26 141 71 208 310 138 261 240 55 28 49 95 102 36 233 292 172 230 117 116 106 283 242 193 195 8 41
p edge 320 689
e 0 245 24.0
e 0 144 12.0
e 0 31 1.0
e 0 88 47.0
e 0 191 41.0
e 0 189 19.0
e 0 147 48.0
e 0 48 47.0
e 1 199 1.0
e 1 0 46.0
e 2 285 1.0
e 3 118 31.0
e 3 43 6.0
e 4 66 2.0
e 5 1 1.0
e 6 127 1.0
e 7 312 5.0
e 7 21 1.0
e 8 295 10.0
e 8 6 26.0
e 8 174 32.0
e 8 296 20.0
e 9 299 43.0
e 9 43 38.0
e 9 3 39.0
e 9 258 40.0
e 9 11 47.0
e 9 276 24.0
e 9 130 7.0
e 9 246 13.0
e 10 215 1.0
e 11 66 20.0
e 11 64 36.0
e 11 91 11.0
e 11 200 49.0
e 11 307 15.0
e 11 105 1.0
e 11 305 22.0
e 12 176 1.0
e 13 152 1.0
e 14 119 3.0
e 15 125 6.0
e 16 273 1.0
e 17 146 1.0
e 18 289 1.0
e 19 96 1.0
e 20 133 1.0
e 21 290 2.0
e 22 110 17.0
e 22 132 15.0
e 22 164 44.0
e 22 156 30.0
e 22 242 8.0
e 23 313 1.0
e 24 63 6.0
e 24 14 8.0
e 24 128 1.0
e 24 130 25.0
e 24 43 38.0
e 24 58 24.0
e 24 315 17.0
e 24 163 6.0
e 25 112 45.0
e 26 50 18.0
e 26 1 4.0
e 26 166 46.0
e 26 55 17.0
e 26 112 1.0
e 26 263 49.0
e 26 5 8.0
e 27 70 27.0
e 27 205 48.0
e 27 20 4.0
e 27 180 38.0
e 27 168 5.0
e 27 129 5.0
e 27 49 8.0
e 27 22 27.0
e 27 134 37.0
e 28 215 4.0
e 28 253 17.0
e 28 166 1.0
e 28 222 1.0
e 28 147 7.0
e 28 288 15.0
e 28 75 10.0
e 29 23 2.0
e 30 243 24.0
e 30 172 12.0
e 30 246 42.0
e 30 103 13.0
e 30 166 32.0
e 30 138 44.0
e 31 188 1.0
e 32 212 42.0
e 32 84 34.0
e 32 157 15.0
e 32 239 49.0
e 32 195 33.0
e 32 15 9.0
e 32 153 45.0
e 33 49 45.0
e 34 245 36.0
e 34 202 34.0
e 34 230 13.0
e 34 292 5.0
e 34 106 17.0
e 34 261 30.0
e 34 24 31.0
e 34 166 23.0
e 35 256 1.0
e 36 259 24.0
e 36 305 29.0
e 36 316 16.0
e 36 197 23.0
e 36 277 29.0
e 36 300 4.0
e 37 87 1.0
e 38 24 5.0
e 39 285 27.0
e 39 44 48.0
e 39 85 42.0
e 39 116 45.0
e 39 102 14.0
e 39 208 18.0
e 39 303 14.0
e 40 172 8.0
e 40 26 2.0
e 40 292 36.0
e 40 104 22.0
e 40 97 33.0
e 40 182 46.0
e 40 203 28.0
e 41 40 11.0
e 41 293 5.0
e 41 298 44.0
e 41 97 8.0
e 41 166 26.0
e 41 261 39.0
e 41 218 33.0
e 41 184 10.0
e 42 4 1.0
e 43 235 10.0
e 43 27 23.0
e 43 36 17.0
e 43 89 26.0
e 43 189 5.0
e 43 52 20.0
e 44 308 1.0
e 45 17 1.0
e 46 86 1.0
e 47 28 15.0
e 48 215 2.0
e 49 169 41.0
e 49 116 11.0
e 49 292 1.0
e 49 118 10.0
e 49 208 36.0
e 49 97 44.0
e 50 155 1.0
e 51 207 2.0
e 52 282 41.0
e 52 247 42.0
e 52 106 20.0
e 52 221 14.0
e 52 184 25.0
e 52 234 32.0
e 52 89 22.0
e 52 159 46.0
e 53 101 1.0
e 54 61 1.0
e 55 285 22.0
e 55 89 43.0
e 55 198 49.0
e 55 138 32.0
e 55 28 30.0
e 55 30 48.0
e 55 300 22.0
e 55 112 32.0
e 56 256 8.0
e 56 170 5.0
e 57 154 36.0
e 57 53 46.0
e 57 318 35.0
e 57 148 27.0
e 57 205 27.0
e 57 78 5.0
e 57 217 34.0
e 57 95 3.0
e 57 32 38.0
e 58 297 1.0
e 59 162 1.0
e 60 187 1.0
e 61 208 41.0
e 62 222 5.0
e 63 39 25.0
e 64 75 43.0
e 65 119 1.0
e 66 54 2.0
e 67 317 1.0
e 68 184 13.0
e 69 39 2.0
e 70 158 1.0
e 71 130 39.0
e 71 34 36.0
e 71 112 24.0
e 71 122 47.0
e 71 319 5.0
e 71 274 33.0
e 71 179 24.0
e 71 149 22.0
e 72 278 1.0
e 73 235 1.0
e 74 9 14.0
e 75 138 46.0
e 75 37 11.0
e 75 196 30.0
e 75 49 8.0
e 75 226 17.0
e 76 276 1.0
e 77 36 19.0
e 78 33 1.0
e 79 13 1.0
e 80 250 1.0
e 81 252 1.0
e 82 131 2.0
e 83 272 1.0
e 84 41 40.0
e 85 264 1.0
e 86 291 5.0
e 87 16 1.0
e 88 211 1.0
e 89 188 4.0
e 89 56 7.0
e 89 0 4.0
e 89 7 11.0
e 89 57 4.0
e 90 121 1.0
e 91 30 18.0
e 92 289 21.0
e 92 8 28.0
e 92 223 49.0
e 92 106 29.0
e 92 240 25.0
e 92 230 25.0
e 92 253 39.0
e 92 134 29.0
e 93 313 2.0
e 94 54 1.0
e 95 119 23.0
e 95 171 2.0
e 95 38 30.0
e 95 39 42.0
e 95 40 42.0
e 95 132 2.0
e 96 46 1.0
e 97 75 24.0
e 97 153 25.0
e 97 197 39.0
e 97 98 15.0
e 97 95 35.0
e 98 114 11.0
e 98 292 21.0
e 98 178 32.0
e 98 213 49.0
e 98 275 10.0
e 98 52 12.0
e 98 41 27.0
e 98 43 18.0
e 99 2 18.0
e 99 55 41.0
e 99 60 31.0
e 99 184 44.0
e 99 62 15.0
e 99 9 48.0
e 99 67 30.0
e 99 69 45.0
e 99 76 25.0
e 100 11 10.0
e 101 35 1.0
e 102 145 36.0
e 102 71 15.0
e 102 72 7.0
e 102 227 21.0
e 102 240 45.0
e 102 275 39.0
e 102 11 10.0
e 102 144 5.0
e 103 47 1.0
e 104 212 2.0
e 105 225 1.0
e 106 22 20.0
e 106 89 13.0
e 106 138 7.0
e 106 195 41.0
e 106 184 31.0
e 106 75 24.0
e 107 95 45.0
e 108 241 14.0
e 109 136 2.0
e 110 87 1.0
e 111 304 1.0
e 112 213 1.0
e 112 219 42.0
e 112 249 15.0
e 112 292 46.0
e 112 135 28.0
e 113 142 9.0
e 113 80 41.0
e 113 275 23.0
e 113 89 43.0
e 113 92 35.0
e 113 166 34.0
e 113 112 33.0
e 113 281 9.0
e 113 257 43.0
e 114 176 2.0
e 115 90 1.0
e 116 297 13.0
e 116 97 43.0
e 116 150 46.0
e 116 208 1.0
e 116 98 32.0
e 116 303 49.0
e 116 246 17.0
e 117 193 21.0
e 117 311 48.0
e 117 151 5.0
e 117 138 23.0
e 117 106 44.0
e 117 99 11.0
e 117 102 36.0
e 117 107 49.0
e 117 113 29.0
e 118 77 2.0
e 118 173 24.0
e 118 216 19.0
e 118 303 43.0
e 118 116 13.0
e 118 253 28.0
e 118 117 38.0
e 119 68 1.0
e 120 193 26.0
e 121 286 1.0
e 122 139 2.0
e 123 59 1.0
e 124 181 1.0
e 125 287 1.0
e 126 220 1.0
e 127 209 4.0
e 128 155 1.0
e 129 238 1.0
e 130 267 28.0
e 130 138 48.0
e 130 118 4.0
e 130 303 49.0
e 130 172 48.0
e 130 120 26.0
e 131 295 2.0
e 132 75 7.0
e 132 166 7.0
e 132 151 48.0
e 132 209 45.0
e 132 282 17.0
e 132 123 42.0
e 132 134 39.0
e 133 240 31.0
e 134 8 10.0
e 134 195 15.0
e 134 246 30.0
e 134 124 16.0
e 134 151 30.0
e 135 49 26.0
e 136 267 1.0
e 137 144 37.0
e 138 187 49.0
e 138 175 25.0
e 138 132 1.0
e 139 68 1.0
e 140 266 26.0
e 140 130 7.0
e 140 134 24.0
e 140 138 1.0
e 140 141 29.0
e 140 144 23.0
e 140 151 18.0
e 141 291 27.0
e 141 292 13.0
e 141 228 8.0
e 141 184 10.0
e 141 231 35.0
e 141 303 16.0
e 142 317 2.0
e 143 289 1.0
e 144 153 43.0
e 144 141 47.0
e 144 151 43.0
e 144 166 46.0
e 144 172 32.0
e 145 143 1.0
e 146 213 44.0
e 147 141 4.0
e 148 162 1.0
e 149 54 1.0
e 150 162 1.0
e 151 188 34.0
e 151 184 35.0
e 151 292 12.0
e 152 222 1.0
e 153 74 12.0
e 153 282 15.0
e 153 140 31.0
e 153 151 40.0
e 153 166 5.0
e 153 172 23.0
e 154 36 11.0
e 155 30 39.0
e 156 136 1.0
e 157 204 1.0
e 158 46 1.0
e 159 213 2.0
e 160 314 1.0
e 161 279 2.0
e 162 35 1.0
e 163 272 1.0
e 164 71 39.0
e 165 73 1.0
e 166 23 36.0
e 167 30 27.0
e 168 268 2.0
e 169 133 2.0
e 170 100 2.0
e 171 160 1.0
e 172 65 48.0
e 172 184 23.0
e 172 258 47.0
e 172 189 37.0
e 173 108 2.0
e 174 306 1.0
e 175 246 28.0
e 176 139 2.0
e 177 109 1.0
e 178 215 1.0
e 179 290 1.0
e 180 137 1.0
e 181 161 1.0
e 182 82 2.0
e 183 241 49.0
e 184 302 11.0
e 185 238 1.0
e 186 160 2.0
e 187 141 2.0
e 188 160 1.0
e 189 265 22.0
e 189 210 36.0
e 189 310 44.0
e 189 144 21.0
e 190 56 16.0
e 190 230 48.0
e 190 208 18.0
e 190 153 12.0
e 191 8 38.0
e 192 143 39.0
e 192 172 10.0
e 192 184 22.0
e 192 198 37.0
e 192 189 14.0
e 192 190 31.0
e 192 193 12.0
e 192 195 45.0
e 193 241 17.0
e 193 190 30.0
e 193 242 34.0
e 193 195 2.0
e 193 197 46.0
e 194 127 1.0
e 195 301 15.0
e 195 190 10.0
e 195 253 9.0
e 195 282 25.0
e 196 243 43.0
e 197 28 36.0
e 197 190 8.0
e 197 192 15.0
e 197 195 18.0
e 197 198 12.0
e 198 194 17.0
e 198 190 4.0
e 198 193 37.0
e 198 201 22.0
e 198 303 41.0
e 199 22 24.0
e 200 12 2.0
e 201 15 31.0
e 201 190 44.0
e 201 197 29.0
e 201 205 3.0
e 201 208 16.0
e 201 213 33.0
e 201 275 44.0
e 202 23 1.0
e 203 82 2.0
e 204 29 3.0
e 205 142 24.0
e 205 233 5.0
e 205 198 34.0
e 205 246 29.0
e 205 208 34.0
e 206 131 2.0
e 207 193 34.0
e 208 111 31.0
e 208 213 8.0
e 209 192 25.0
e 210 270 1.0
e 211 280 1.0
e 212 158 1.0
e 213 255 10.0
e 213 205 15.0
e 213 214 42.0
e 214 189 12.0
e 215 142 1.0
e 216 286 1.0
e 217 77 1.0
e 218 205 37.0
e 219 18 1.0
e 220 19 1.0
e 221 181 1.0
e 222 92 38.0
e 223 229 42.0
e 223 201 25.0
e 223 208 40.0
e 223 213 1.0
e 223 224 3.0
e 223 230 22.0
e 223 233 31.0
e 223 234 10.0
e 224 140 41.0
e 225 94 1.0
e 226 297 1.0
e 227 59 1.0
e 228 186 2.0
e 229 17 1.0
e 230 33 33.0
e 230 233 18.0
e 230 234 32.0
e 230 236 6.0
e 230 237 3.0
e 231 36 17.0
e 232 136 2.0
e 233 93 46.0
e 233 234 15.0
e 233 240 23.0
e 233 241 21.0
e 233 292 32.0
e 233 242 40.0
e 234 18 33.0
e 234 254 13.0
e 234 240 42.0
e 234 241 23.0
e 235 302 2.0
e 236 134 31.0
e 237 115 1.0
e 238 289 2.0
e 239 90 1.0
e 240 306 25.0
e 240 223 18.0
e 240 262 47.0
e 241 101 36.0
e 241 230 33.0
e 241 240 42.0
e 241 242 46.0
e 242 244 35.0
e 242 282 16.0
e 242 234 34.0
e 242 243 9.0
e 242 246 2.0
e 243 232 43.0
e 243 233 21.0
e 243 241 12.0
e 243 246 28.0
e 243 253 7.0
e 243 255 32.0
e 244 82 1.0
e 245 269 1.0
e 246 139 20.0
e 247 185 1.0
e 248 54 1.0
e 249 97 7.0
e 250 273 1.0
e 251 244 3.0
e 252 211 1.0
e 253 198 25.0
e 253 242 9.0
e 253 246 11.0
e 253 255 35.0
e 254 47 2.0
e 255 206 35.0
e 255 258 23.0
e 255 260 24.0
e 255 261 47.0
e 255 275 26.0
e 255 282 17.0
e 256 51 1.0
e 257 22 8.0
e 258 167 19.0
e 258 243 35.0
e 258 253 44.0
e 258 260 36.0
e 258 282 27.0
e 259 83 2.0
e 260 271 42.0
e 260 261 14.0
e 260 275 46.0
e 260 282 5.0
e 260 283 31.0
e 260 292 48.0
e 261 278 6.0
e 261 258 38.0
e 261 275 30.0
e 261 303 12.0
e 261 282 44.0
e 262 211 1.0
e 263 77 1.0
e 264 10 1.0
e 265 264 1.0
e 266 25 1.0
e 267 155 3.0
e 268 308 2.0
e 269 42 1.0
e 270 32 49.0
e 271 26 47.0
e 272 45 1.0
e 273 8 20.0
e 274 267 2.0
e 275 177 18.0
e 276 26 24.0
e 277 229 1.0
e 278 284 1.0
e 279 258 20.0
e 280 197 44.0
e 281 234 40.0
e 282 63 38.0
e 283 273 28.0
e 283 255 35.0
e 283 261 33.0
e 283 275 37.0
e 283 303 4.0
e 283 305 41.0
e 283 309 40.0
e 283 310 6.0
e 284 126 1.0
e 285 16 1.0
e 286 81 1.0
e 287 32 34.0
e 288 189 30.0
e 289 287 1.0
e 290 8 8.0
e 291 165 1.0
e 292 251 46.0
e 293 86 2.0
e 294 151 44.0
e 295 87 2.0
e 296 220 2.0
e 297 260 45.0
e 298 185 1.0
e 299 79 2.0
e 300 201 45.0
e 301 51 1.0
e 302 183 1.0
e 303 275 1.0
e 304 40 19.0
e 305 294 49.0
e 305 303 46.0
e 305 260 21.0
e 305 310 2.0
e 306 95 32.0
e 307 22 43.0
e 308 267 1.0
e 309 34 15.0
e 310 4 21.0
e 311 232 1.0
e 312 140 46.0
e 313 8 15.0
e 314 35 2.0
e 315 248 1.0
e 316 101 1.0
e 317 240 36.0
e 318 317 1.0
e 319 165 2.0
